p tw 40 84
0 1
0 23
0 4
1 21
1 19
1 17
1 23
1 28
1 3
1 26
2 3
2 24
3 7
3 9
3 26
3 37
3 17
3 31
4 5
4 8
4 13
4 18
4 32
5 14
5 36
6 7
6 29
6 8
6 17
6 10
6 13
7 14
7 25
8 12
8 24
8 32
9 10
9 27
9 17
9 11
10 31
10 20
10 28
10 33
10 29
10 12
11 12
11 14
11 38
12 19
12 24
12 14
12 20
13 14
13 35
14 26
14 28
14 22
14 18
15 16
16 34
16 35
17 18
17 26
17 28
17 19
17 33
17 39
18 23
18 27
19 24
20 21
20 27
20 28
21 25
22 23
22 25
22 24
24 33
25 33
27 28
27 33
29 31
30 31
